p edge 51 225
e 1 2
e 1 11
e 1 17
e 1 37
e 2 3
e 2 5
e 2 7
e 2 9
e 2 13
e 2 15
e 2 18
e 3 4
e 3 11
e 3 37
e 4 5
e 4 8
e 4 10
e 4 13
e 4 15
e 4 17
e 4 19
e 4 21
e 4 22
e 4 23
e 4 24
e 4 25
e 4 26
e 4 27
e 4 28
e 4 39
e 4 40
e 4 41
e 4 42
e 4 44
e 4 45
e 4 46
e 4 47
e 5 6
e 5 20
e 5 37
e 6 7
e 6 9
e 6 11
e 6 13
e 6 29
e 7 8
e 7 17
e 7 37
e 8 9
e 8 11
e 8 16
e 8 29
e 9 10
e 9 12
e 9 14
e 9 17
e 9 19
e 10 11
e 10 37
e 11 12
e 11 15
e 11 18
e 11 20
e 11 22
e 11 24
e 11 26
e 11 28
e 11 30
e 11 31
e 11 32
e 11 33
e 11 34
e 11 35
e 11 36
e 11 38
e 11 39
e 11 41
e 11 43
e 11 45
e 11 47
e 12 13
e 12 37
e 13 14
e 13 16
e 13 20
e 13 43
e 14 15
e 14 18
e 14 37
e 15 16
e 15 29
e 16 17
e 16 22
e 16 24
e 16 26
e 16 28
e 16 37
e 16 40
e 16 42
e 16 44
e 16 46
e 17 18
e 17 20
e 17 43
e 18 19
e 18 29
e 19 20
e 19 37
e 20 21
e 20 23
e 20 25
e 20 27
e 20 29
e 20 40
e 20 42
e 20 44
e 20 46
e 21 22
e 21 24
e 21 28
e 21 37
e 21 40
e 21 42
e 21 46
e 22 23
e 22 27
e 22 29
e 22 42
e 22 44
e 22 46
e 23 24
e 23 26
e 23 37
e 23 40
e 23 42
e 23 44
e 24 25
e 24 29
e 24 40
e 24 44
e 24 46
e 25 26
e 25 28
e 25 37
e 25 42
e 25 44
e 25 46
e 26 27
e 26 29
e 26 40
e 26 42
e 26 46
e 27 28
e 27 37
e 27 40
e 27 44
e 27 46
e 28 29
e 28 40
e 28 42
e 28 44
e 29 30
e 29 32
e 29 34
e 29 35
e 29 37
e 30 31
e 30 32
e 30 33
e 30 34
e 30 35
e 30 38
e 31 32
e 31 35
e 31 37
e 32 33
e 32 34
e 32 35
e 32 36
e 33 34
e 33 37
e 34 35
e 34 36
e 34 38
e 35 36
e 35 38
e 36 37
e 37 38
e 37 39
e 37 41
e 37 43
e 37 45
e 37 47
e 37 48
e 37 49
e 37 50
e 37 51
e 39 40
e 39 42
e 39 46
e 40 41
e 40 42
e 40 43
e 40 44
e 40 46
e 40 47
e 41 42
e 41 44
e 42 43
e 42 44
e 42 45
e 42 46
e 43 44
e 43 46
e 44 45
e 44 46
e 44 47
e 45 46
e 46 47
e 48 49
e 48 50
e 48 51
e 49 50
e 49 51
e 50 51
